 Fe  I                                  
   1.00000000000000     
     7.2841981228533950    0.0000000000000000    0.0000000000000000
    -3.6420990614266984    6.3083006205899617    0.0000000000000000
     0.0000000000000000    0.0000000000000000   21.5690980866280988
   Fe   I 
     2     6
Direct
  0.6666666666666643  0.3333333333333357  0.5000260718870777
  0.3333333333333357  0.6666666666666643  0.4999429437925187
  0.4278960990170404  0.0000545575987374  0.4172636224219204
  0.5721584585816899  0.5721039009829596  0.4172636224219133
  0.9999454424012768  0.4278415414183101  0.4172636224219204
  0.4279030110457214  0.0001516819342200  0.5827363775780867
  0.5722486708885128  0.5720969889542786  0.5827363775780867
  0.9998483180657800  0.4277513291114730  0.5827363775780867
 
  0.00000000E+00  0.00000000E+00  0.00000000E+00
  0.00000000E+00  0.00000000E+00  0.00000000E+00
  0.00000000E+00  0.00000000E+00  0.00000000E+00
  0.00000000E+00  0.00000000E+00  0.00000000E+00
  0.00000000E+00  0.00000000E+00  0.00000000E+00
  0.00000000E+00  0.00000000E+00  0.00000000E+00
  0.00000000E+00  0.00000000E+00  0.00000000E+00
  0.00000000E+00  0.00000000E+00  0.00000000E+00
