#Si_dft_exc
System  = Si
PREC = Normal ; ENCUT =520
ALGO = EXACT ; NELM = 1
ISMEAR = 0 ; SIGMA = 0.01
KPAR = 2
NBANDS=288
LOPTICS = .TRUE. ; LPEAD = .TRUE.
OMEGAMAX = 40
