#Si_gw
System  = Si
PREC = Normal ; ENCUT = 520
ALGO = Nothing   ; NELM = 1
ISMEAR = 0 ; SIGMA = 0.01
KPAR = 2
NBANDS=288
LWAVE = .FALSE.
LOPTICS = .TRUE. ; LPEAD = .TRUE.
OMEGAMAX = 40
