#Si_gw
System  = Si
PREC = Normal ; ENCUT = 520
ALGO = GW0  
ISMEAR = 0 ; SIGMA = 0.01 
ENCUTGW = 150 ; NELM = 1 ;  NOMEGA =  50 ;  OMEGATL = 280
KPAR = 2
NBANDS=288
NBANDS=288
NBANDS=288
LWAVE = .TRUE.
PRECFOCK = Normal
