KPT-Resolved Value to Generate K-Mesh: 0.040
0
G
   2   2   1
0.0  0.0  0.0
