 Fe  I
   1.000
    7.2841981228533950    0.0000000000000000    0.0000000000000000
   -3.6420990614266984    6.3083006205899617    0.0000000000000000
    0.0000000000000000    0.0000000000000000   21.5690980866280988
   Fe   I 
    2    6
Cartesian
    3.6420990614266930    2.1027668735299896   10.7851113904037810    Fe1
    0.0000000000000044    4.2055337470599792   10.7833183923784404    Fe2
    3.1166812570570848    0.0003441657339523    9.0000000000001101     I1
    2.0840564891668505    3.6090033936127623    9.0000000000000000     I2
   -1.5586386847971765    2.6989530612433068    9.0000000000001101     I3
    3.1163778691922990    0.0009568552397636   12.5690980866280952     I4
    2.0847387877760135    3.6089597904579294   12.5690980866280952     I5
   -1.5590175955414045    2.6983839748920682   12.5690980866280952     I6
