Fe  I 
 1.0000000000000000
     7.2841981228533950    0.0000000000000000    0.0000000000000000
    -3.6420990614266984    6.3083006205899617    0.0000000000000000
     0.0000000000000000    0.0000000000000000   18.2782786641039152
 Fe  I  
   2   6
Cartesian
  3.6420990614266930  2.1027668735299896  9.1397860656298509
  0.0000000000000044  4.2055337470599792  9.1379930676045085
  3.1166812570570848  0.0003441657339523  7.3546746752261773
  2.0840564891668505  3.6090033936127623  7.3546746752260690
 -1.5586386847971763  2.6989530612433068  7.3546746752261773
  3.1163778691922981  0.0009568552397636 10.9237727618541651
  2.0847387877760131  3.6089597904579294 10.9237727618541651
 -1.5590175955414038  2.6983839748920682 10.9237727618541651
